20J7M/DAT/20J7MNTL-18.dat
20 7
18.0475 18.0475
18.0133 18.0133
30.1225 30.1225
30.2545 30.2545
34.8318 34.8318
24.944 24.944
28.4329 28.4329
32.8997 32.8997
28.3741 28.3741
28.3697 28.3697
26.4319 26.4319
17.383 17.383
22.9872 22.9872
30.4136 30.4136
31.5536 31.5536
33.6544 33.6544
21.3811 21.3811
20.2227 20.2227
33.7654 33.7654
21.5721 21.5721
57.1773