20J7M/SOL/20J7MNTL-18.sol
solution status: optimal solution found
objective value:                              57.1773
x#1#4                                               1 	(obj:0)
x#2#4                                               1 	(obj:0)
x#3#3                              0.0443588679558468 	(obj:0)
x#4#2                                               1 	(obj:0)
x#5#7                                               1 	(obj:0)
x#6#6                                               1 	(obj:0)
x#7#6                               0.374959993528624 	(obj:0)
x#8#1                               0.672738657191403 	(obj:0)
x#8#3                               0.327261342808597 	(obj:0)
x#9#5                               0.302561138503071 	(obj:0)
x#10#5                                              1 	(obj:0)
x#12#4                                              1 	(obj:0)
x#14#1                                              1 	(obj:0)
x#15#1                              0.146759799198824 	(obj:0)
x#15#2                              0.853240200801176 	(obj:0)
x#16#3                                              1 	(obj:0)
x#17#4                              0.174616834494016 	(obj:0)
x#18#5                                              1 	(obj:0)
x#19#3                              0.338213082030718 	(obj:0)
x#19#7                              0.661786917969282 	(obj:0)
x#20#6                                              1 	(obj:0)
z                                             57.1773 	(obj:1)
